p edge 379 914
e 1 2
e 1 3
e 1 4
e 1 5
e 1 16
e 1 44
e 1 113
e 1 131
e 1 250
e 1 259
e 2 3
e 4 5
e 4 13
e 4 14
e 4 15
e 4 16
e 4 44
e 4 45
e 4 46
e 4 47
e 4 61
e 4 126
e 4 127
e 4 128
e 4 146
e 4 152
e 4 153
e 4 154
e 4 164
e 4 165
e 4 166
e 4 176
e 4 177
e 4 249
e 4 250
e 4 274
e 4 313
e 4 314
e 4 323
e 4 324
e 4 330
e 4 371
e 4 373
e 4 374
e 5 15
e 5 16
e 5 44
e 5 45
e 5 46
e 5 47
e 5 176
e 5 177
e 5 199
e 5 201
e 5 202
e 5 204
e 5 231
e 5 235
e 5 236
e 5 237
e 5 238
e 5 249
e 5 250
e 5 254
e 5 298
e 5 313
e 5 314
e 5 373
e 5 374
e 6 7
e 6 8
e 7 8
e 7 190
e 7 191
e 7 192
e 7 193
e 8 26
e 8 62
e 8 63
e 8 64
e 8 65
e 8 137
e 8 189
e 8 342
e 8 343
e 8 344
e 9 10
e 9 11
e 9 12
e 10 11
e 10 12
e 10 67
e 10 68
e 10 69
e 11 12
e 13 14
e 13 15
e 13 16
e 13 17
e 13 18
e 13 19
e 13 20
e 13 274
e 14 15
e 14 16
e 15 16
e 15 45
e 15 46
e 15 47
e 15 176
e 15 177
e 15 278
e 15 279
e 15 334
e 15 366
e 15 367
e 15 368
e 16 45
e 16 46
e 16 47
e 16 153
e 16 154
e 16 176
e 16 177
e 16 249
e 16 250
e 16 313
e 16 314
e 16 323
e 16 324
e 16 371
e 16 373
e 17 18
e 17 29
e 17 58
e 17 172
e 17 201
e 17 258
e 17 261
e 17 365
e 18 58
e 18 172
e 18 201
e 18 258
e 18 261
e 18 365
e 19 20
e 19 208
e 21 22
e 21 23
e 21 24
e 21 33
e 21 109
e 21 220
e 21 221
e 21 232
e 21 233
e 21 268
e 21 287
e 21 288
e 22 23
e 22 24
e 23 24
e 23 50
e 23 51
e 23 52
e 23 54
e 23 55
e 23 220
e 23 227
e 23 228
e 24 79
e 24 140
e 24 220
e 24 229
e 24 232
e 24 233
e 24 268
e 25 26
e 25 27
e 25 28
e 26 27
e 26 28
e 26 40
e 26 95
e 26 104
e 26 105
e 26 106
e 26 107
e 26 108
e 26 124
e 26 125
e 26 155
e 26 197
e 26 198
e 26 231
e 26 234
e 26 251
e 26 273
e 26 295
e 26 296
e 26 297
e 26 306
e 26 315
e 26 316
e 26 317
e 27 28
e 30 31
e 30 32
e 30 33
e 30 34
e 30 35
e 30 36
e 30 51
e 30 76
e 30 219
e 31 32
e 31 33
e 31 34
e 32 33
e 32 34
e 32 35
e 32 36
e 32 51
e 32 76
e 32 216
e 32 217
e 32 218
e 32 219
e 32 307
e 32 369
e 32 370
e 33 34
e 33 35
e 33 36
e 33 109
e 33 219
e 33 220
e 33 221
e 35 36
e 35 219
e 37 38
e 38 304
e 38 305
e 39 40
e 40 173
e 40 174
e 40 175
e 40 239
e 40 240
e 40 282
e 40 326
e 41 42
e 41 43
e 41 241
e 41 242
e 41 243
e 41 244
e 42 43
e 42 52
e 42 170
e 42 241
e 42 242
e 42 243
e 42 244
e 42 275
e 42 276
e 42 277
e 42 364
e 43 275
e 43 276
e 43 277
e 44 66
e 45 46
e 45 47
e 45 176
e 45 177
e 45 323
e 45 324
e 46 47
e 46 176
e 46 177
e 47 176
e 47 177
e 48 49
e 49 67
e 49 74
e 49 181
e 49 182
e 49 183
e 49 226
e 50 51
e 50 52
e 50 53
e 51 52
e 51 76
e 51 95
e 51 100
e 51 160
e 51 169
e 51 170
e 51 307
e 51 308
e 51 322
e 51 337
e 52 76
e 52 100
e 52 116
e 52 117
e 52 169
e 52 170
e 52 266
e 52 267
e 52 291
e 52 364
e 53 170
e 54 55
e 56 57
e 56 100
e 56 110
e 56 194
e 56 195
e 58 59
e 58 60
e 59 60
e 60 304
e 60 357
e 60 358
e 60 359
e 61 164
e 61 165
e 61 166
e 62 63
e 62 64
e 62 65
e 63 64
e 65 264
e 65 265
e 65 299
e 65 300
e 65 301
e 65 302
e 65 345
e 65 346
e 66 100
e 66 101
e 66 102
e 66 110
e 66 111
e 67 68
e 67 69
e 67 70
e 67 71
e 67 72
e 67 73
e 67 74
e 67 75
e 67 80
e 67 81
e 67 121
e 67 122
e 67 123
e 67 169
e 67 248
e 67 285
e 67 363
e 68 69
e 68 80
e 68 81
e 69 70
e 69 71
e 69 75
e 69 80
e 69 81
e 69 285
e 70 71
e 70 72
e 70 73
e 70 75
e 70 119
e 70 150
e 70 214
e 70 303
e 70 328
e 70 329
e 70 348
e 70 349
e 70 350
e 70 351
e 70 378
e 70 379
e 71 72
e 71 73
e 71 75
e 72 73
e 72 119
e 72 303
e 73 150
e 75 285
e 76 169
e 76 170
e 77 78
e 77 79
e 78 79
e 80 81
e 81 121
e 81 122
e 81 123
e 82 83
e 82 84
e 82 85
e 82 86
e 82 87
e 82 88
e 82 89
e 83 84
e 83 85
e 83 86
e 83 87
e 83 88
e 83 89
e 83 262
e 83 263
e 84 85
e 84 86
e 84 87
e 84 88
e 84 89
e 85 86
e 85 87
e 85 88
e 85 89
e 85 106
e 85 260
e 85 262
e 85 263
e 86 87
e 86 88
e 86 89
e 86 106
e 86 260
e 86 262
e 86 263
e 87 88
e 87 89
e 88 89
e 88 106
e 88 260
e 88 262
e 88 263
e 90 91
e 90 92
e 91 92
e 91 130
e 91 131
e 91 132
e 91 133
e 91 134
e 91 188
e 92 130
e 92 131
e 92 132
e 92 133
e 92 134
e 92 188
e 93 94
e 93 95
e 93 96
e 93 97
e 93 98
e 93 99
e 94 95
e 94 96
e 94 97
e 94 98
e 94 99
e 95 96
e 95 97
e 95 98
e 95 99
e 95 178
e 95 179
e 95 180
e 95 286
e 95 308
e 95 337
e 95 338
e 95 339
e 95 362
e 96 97
e 96 98
e 96 99
e 96 141
e 97 98
e 97 99
e 97 178
e 97 362
e 98 99
e 100 101
e 100 102
e 100 103
e 100 110
e 100 111
e 100 145
e 100 194
e 100 195
e 101 102
e 101 103
e 101 311
e 102 159
e 102 280
e 102 360
e 102 361
e 104 105
e 104 106
e 104 107
e 104 108
e 105 106
e 105 107
e 106 107
e 106 185
e 106 260
e 107 108
e 107 283
e 107 284
e 107 372
e 108 125
e 108 155
e 108 156
e 108 158
e 110 111
e 110 194
e 110 195
e 112 113
e 112 114
e 112 115
e 113 114
e 113 115
e 113 131
e 113 135
e 113 136
e 113 189
e 113 259
e 113 312
e 113 352
e 113 353
e 113 354
e 113 355
e 113 356
e 114 115
e 114 131
e 114 135
e 114 312
e 115 172
e 115 347
e 116 117
e 116 318
e 116 319
e 116 320
e 116 321
e 118 119
e 118 120
e 118 209
e 119 120
e 119 214
e 119 303
e 119 348
e 119 349
e 119 350
e 119 351
e 121 122
e 121 123
e 122 123
e 122 169
e 122 248
e 124 125
e 125 234
e 125 255
e 125 256
e 126 127
e 126 128
e 126 129
e 126 327
e 126 330
e 127 128
e 127 129
e 127 327
e 127 330
e 128 129
e 128 327
e 128 330
e 128 340
e 128 341
e 130 131
e 130 132
e 130 133
e 130 134
e 131 132
e 131 133
e 131 134
e 131 135
e 131 136
e 131 259
e 132 133
e 132 134
e 132 188
e 133 134
e 135 189
e 135 352
e 135 353
e 135 354
e 135 355
e 135 356
e 137 138
e 137 342
e 137 343
e 139 140
e 140 206
e 140 207
e 140 229
e 140 230
e 142 143
e 142 144
e 142 145
e 143 144
e 143 145
e 144 145
e 145 194
e 146 147
e 146 148
e 147 148
e 149 150
e 149 151
e 149 270
e 149 293
e 150 151
e 150 270
e 150 271
e 150 293
e 150 294
e 153 154
e 155 156
e 155 157
e 155 158
e 160 161
e 160 162
e 160 163
e 160 322
e 161 162
e 162 163
e 164 165
e 164 166
e 165 166
e 167 168
e 167 169
e 167 170
e 168 169
e 168 170
e 168 205
e 169 170
e 169 205
e 169 248
e 169 289
e 169 290
e 169 291
e 169 292
e 170 266
e 170 267
e 170 336
e 170 364
e 171 172
e 172 325
e 172 347
e 173 174
e 173 175
e 174 175
e 175 282
e 176 177
e 178 179
e 178 180
e 181 182
e 181 183
e 182 183
e 183 226
e 184 185
e 184 186
e 184 187
e 184 309
e 184 310
e 185 186
e 185 187
e 185 309
e 185 310
e 186 187
e 186 309
e 186 310
e 190 191
e 190 192
e 190 193
e 192 193
e 194 195
e 194 196
e 198 251
e 199 200
e 199 201
e 199 202
e 199 203
e 199 204
e 199 258
e 200 201
e 200 202
e 201 202
e 201 203
e 201 204
e 201 245
e 201 252
e 201 253
e 201 254
e 201 258
e 201 298
e 202 203
e 202 204
e 202 258
e 204 245
e 204 298
e 206 207
e 207 375
e 207 376
e 207 377
e 210 211
e 210 212
e 210 213
e 210 214
e 210 215
e 211 212
e 211 213
e 211 214
e 211 215
e 212 213
e 212 214
e 212 215
e 212 222
e 212 223
e 212 224
e 212 225
e 213 214
e 213 215
e 214 215
e 214 303
e 214 348
e 214 349
e 214 350
e 214 351
e 216 217
e 216 218
e 217 218
e 220 221
e 222 223
e 222 224
e 222 225
e 223 224
e 223 225
e 224 225
e 227 228
e 231 232
e 231 233
e 231 234
e 231 235
e 231 236
e 231 237
e 231 238
e 231 239
e 231 240
e 231 246
e 231 257
e 231 297
e 232 233
e 232 268
e 233 268
e 236 237
e 236 238
e 236 239
e 236 240
e 236 245
e 236 246
e 236 247
e 236 257
e 237 238
e 239 240
e 239 246
e 239 257
e 239 326
e 240 246
e 240 257
e 240 326
e 241 242
e 241 243
e 241 244
e 242 243
e 242 244
e 243 244
e 245 246
e 245 247
e 245 298
e 246 247
e 246 257
e 250 313
e 250 314
e 252 253
e 255 256
e 262 263
e 264 265
e 265 299
e 265 300
e 265 301
e 265 302
e 266 267
e 269 270
e 269 271
e 269 272
e 270 271
e 270 272
e 270 293
e 270 294
e 271 294
e 275 276
e 275 277
e 276 277
e 278 279
e 280 281
e 280 360
e 280 361
e 283 284
e 287 288
e 289 290
e 290 291
e 290 292
e 295 296
e 299 300
e 299 301
e 299 302
e 300 301
e 303 328
e 303 329
e 303 348
e 303 349
e 303 350
e 303 351
e 303 378
e 303 379
e 304 305
e 304 357
e 304 358
e 304 359
e 308 337
e 309 310
e 313 314
e 315 316
e 315 317
e 316 317
e 318 319
e 318 320
e 318 321
e 319 320
e 319 321
e 320 321
e 323 324
e 328 329
e 331 332
e 331 333
e 331 334
e 331 335
e 332 333
e 332 334
e 332 335
e 333 334
e 333 335
e 334 335
e 334 366
e 334 367
e 334 368
e 338 339
e 340 341
e 342 343
e 345 346
e 348 349
e 348 350
e 348 351
e 349 350
e 349 351
e 350 351
e 352 353
e 352 354
e 352 355
e 352 356
e 353 354
e 353 355
e 353 356
e 354 355
e 354 356
e 355 356
e 357 358
e 357 359
e 358 359
e 360 361
e 366 367
e 366 368
e 367 368
e 369 370
e 373 374
e 375 376
e 375 377
e 376 377
e 378 379
